NAME = SAfile180,
TOURSIZE = 180,
LENGTH = 1960,
112,65,100,143,146,179,166,106,19,17,68,20,122,134,13,80,121,142,98,91,1,11,63,38,50,4,32,113,57,154,129,102,88,25,133,144,108,157,56,86,87,82,72,62,137,24,44,118,89,168,14,114,111,110,105,69,67,131,76,53,31,141,27,75,167,90,136,18,2,156,97,10,34,3,39,109,30,51,47,178,7,120,115,165,160,92,95,177,169,55,124,123,153,159,78,74,163,145,104,117,151,161,59,148,9,5,140,71,119,99,49,33,73,28,54,164,170,96,103,176,180,58,125,52,43,139,152,29,16,12,45,172,116,158,135,35,107,149,150,132,6,22,175,173,174,130,84,138,46,40,147,15,61,162,79,93,8,21,42,23,37,36,66,64,171,83,41,155,128,77,70,60,85,127,126,101,26,94,48,81